sat
(:max-memory         17.95
 :memory             17.95
 :nlsat-conflicts    1
 :nlsat-propagations 10
 :nlsat-stages       5
 :num-allocs         18322
 :rlimit-count       734
 :time               0.00)
